Problem:    
Rows:       105
Columns:    45 (34 integer, 34 binary)
Non-zeros:  302
Status:     INTEGER OPTIMAL
Objective:  value = 69.12162 (MINimum)

   No.   Row name        Activity     Lower bound   Upper bound
------ ------------    ------------- ------------- -------------
     1 r.5                   569.122             0               
     2 r.6                  -478.483      -487.037               
     3 r.7                   69.1216             0               
     4 r.8                   14.2849      -493.775               
     5 r.9                   69.1216             0               
     6 r.10                  8.55352      -419.705               
     7 r.11                  569.122             0               
     8 r.12                 -440.588      -454.873               
     9 r.13                  569.122             0               
    10 r.14                 -430.878      -452.395               
    11 r.15                  69.1216             0               
    12 r.16                  -404.62      -473.742               
    13 r.17                  69.1216             0               
    14 r.18                 -71.7414      -483.368               
    15 r.19                  569.122             0               
    16 r.20                 -430.878       -490.29               
    17 r.21                  569.122             0               
    18 r.22                  -499.32       -499.32               
    19 r.23                  69.1216             0               
    20 r.24                     0.68      -498.016               
    21 r.25                        1             1             = 
    22 r.26                        1             1             = 
    23 r.27                        1             1             = 
    24 r.28                        1             1             = 
    25 r.29                        1             1             = 
    26 r.30                  487.037       80.2949               
    27 r.31                 -487.037      -487.037               
    28 r.32                   45.127        45.127               
    29 r.33                  -45.127      -493.775               
    30 r.34                  47.6049       47.6049               
    31 r.35                 -47.6049      -487.037               
    32 r.36                  81.0947        26.258               
    33 r.37                 -81.0947      -493.775               
    34 r.38                  406.742       16.6315               
    35 r.39                 -406.742      -487.037               
    36 r.40                  54.8367        9.7097               
    37 r.41                 -54.8367      -493.775               
    38 r.42                 -479.163       -482.58               
    39 r.43                  13.6049       -480.17               
    40 r.44                 -479.163       -482.58               
    41 r.45                  13.6049       -480.17               
    42 r.46                  12.9632       12.9632               
    43 r.47                 -12.9632      -419.705               
    44 r.48                  454.873        6.2251               
    45 r.49                 -454.873      -454.873               
    46 r.50                  60.5681       47.6049               
    47 r.51                 -60.5681      -419.705               
    48 r.52                  35.9677        26.258               
    49 r.53                 -35.9677      -454.873               
    50 r.54                  419.705       16.6315               
    51 r.55                 -419.705      -419.705               
    52 r.56                   9.7097        9.7097               
    53 r.57                  -9.7097      -454.873               
    54 r.58                  7.87352      -415.248               
    55 r.59                 -441.268      -441.268               
    56 r.60                  7.87352      -415.248               
    57 r.61                 -441.268      -441.268               
    58 r.62                  452.395       12.9632               
    59 r.63                 -452.395      -452.395               
    60 r.64                  418.905        6.2251               
    61 r.65                 -418.905      -473.742               
    62 r.66                  439.432       80.2949               
    63 r.67                 -439.432      -452.395               
    64 r.68                  464.032        45.127               
    65 r.69                 -464.032      -473.742               
    66 r.70                  359.137       16.6315               
    67 r.71                 -359.137      -452.395               
    68 r.72                  473.742        9.7097               
    69 r.73                 -473.742      -473.742               
    70 r.74                 -431.558      -447.938               
    71 r.75                   -405.3      -460.137               
    72 r.76                 -431.558      -447.938               
    73 r.77                   -405.3      -460.137               
    74 r.78                  93.2581       12.9632               
    75 r.79                 -93.2581      -483.368               
    76 r.80                  445.163        6.2251               
    77 r.81                 -445.163       -490.29               
    78 r.82                  80.2949       80.2949               
    79 r.83                 -80.2949      -483.368               
    80 r.84                   490.29        45.127               
    81 r.85                  -490.29       -490.29               
    82 r.86                  140.863       47.6049               
    83 r.87                 -140.863      -483.368               
    84 r.88                   26.258        26.258               
    85 r.89                  -26.258       -490.29               
    86 r.90                 -72.4214      -478.912               
    87 r.91                 -431.558      -476.685               
    88 r.92                 -72.4214      -478.912               
    89 r.93                 -431.558      -476.685               
    90 r.94                 -479.163       -482.58               
    91 r.95                  13.6049       -480.17               
    92 r.96                 -479.163       -482.58               
    93 r.97                  13.6049       -480.17               
    94 r.98                  7.87352      -415.248               
    95 r.99                 -441.268      -441.268               
    96 r.100                 7.87352      -415.248               
    97 r.101                -441.268      -441.268               
    98 r.102                -431.558      -447.938               
    99 r.103                  -405.3      -460.137               
   100 r.104                -431.558      -447.938               
   101 r.105                  -405.3      -460.137               
   102 r.106                -72.4214      -478.912               
   103 r.107                -431.558      -476.685               
   104 r.108                -72.4214      -478.912               
   105 r.109                -431.558      -476.685               

   No. Column name       Activity     Lower bound   Upper bound
------ ------------    ------------- ------------- -------------
     1 tt                    69.1216             0               
     2 s_1_1        *              1             0             1 
     3 t_1_1                 47.6049             0               
     4 s_2_1        *              0             0             1 
     5 t_2_1                 54.8367             0               
     6 s_1_2        *              0             0             1 
     7 t_1_2                 60.5681             0               
     8 s_2_2        *              1             0             1 
     9 t_2_2                  9.7097             0               
    10 s_1_3        *              1             0             1 
    11 t_1_3                       0             0               
    12 s_2_3        *              0             0             1 
    13 t_2_3                 473.742             0               
    14 s_1_4        *              0             0             1 
    15 t_1_4                 140.863             0               
    16 s_2_4        *              1             0             1 
    17 t_2_4                       0             0               
    18 s_1_5        *              1             0             1 
    19 t_1_5                 68.4416             0               
    20 s_2_5        *              0             0             1 
    21 t_2_5                 68.4416             0               
    22 u_1_1_2      *              1             0             1 
    23 u_2_1_2      *              0             0             1 
    24 u_1_1_3      *              0             0             1 
    25 u_2_1_3      *              1             0             1 
    26 u_1_1_4      *              1             0             1 
    27 u_2_1_4      *              0             0             1 
    28 u_1_2_1      *              0             0             1 
    29 u_2_2_1      *              1             0             1 
    30 u_1_2_3      *              0             0             1 
    31 u_2_2_3      *              1             0             1 
    32 u_1_2_4      *              1             0             1 
    33 u_2_2_4      *              0             0             1 
    34 u_1_3_1      *              1             0             1 
    35 u_2_3_1      *              0             0             1 
    36 u_1_3_2      *              1             0             1 
    37 u_2_3_2      *              0             0             1 
    38 u_1_3_4      *              1             0             1 
    39 u_2_3_4      *              0             0             1 
    40 u_1_4_1      *              0             0             1 
    41 u_2_4_1      *              1             0             1 
    42 u_1_4_2      *              0             0             1 
    43 u_2_4_2      *              1             0             1 
    44 u_1_4_3      *              0             0             1 
    45 u_2_4_3      *              1             0             1 

Integer feasibility conditions:

KKT.PE: max.abs.err = 1.14e-13 on row 18
        max.rel.err = 1.02e-16 on row 32
        High quality

KKT.PB: max.abs.err = 1.78e-14 on row 84
        max.rel.err = 6.52e-16 on row 84
        High quality

End of output
